Traveling Salesman Problem/TSP_generados/Aleatorio1620391129_14.tsp
NAME: Aleatorio1620391129_14.tsp
COMMENT: Randomly generated scenario
TYPE: TSP
DIMENSION: 14
EDGE_WEIGHT_TYPE: ATT
NODE_COORD_SECTION
1 49.16 15.23
2 41.42 1.19
3 35.53 10.44
4 17.29 28.94
5 45.46 31.46
6 6.5 22.22
7 38.38 40.25
8 43.73 4.8
9 16.9 9.42
10 36.72 9.95
11 23.67 16.88
12 33.71 2.74
13 14.26 5.35
14 25.4 7.26
