Traveling Salesman Problem/TSP_generados/Aleatorio1620391129_14.opt.tour
NAME: Aleatorio1620391129_14.opt.tour
COMMENT: Optimal solution for Aleatorio1620391129_14 (151.47089727004834)
TYPE: TOUR
DIMENSION: 14
TOUR_SECTION
1 8 2 12 10 3 14 11 9 13 6 4 7 5
-1
EOF
